w = 17;
n = 12;
measures = [|3, 3,
|3, 4,
|3, 5,
|3, 6,
|3, 7,
|3, 8,
|3, 9,
|4, 3,
|4, 8,
|4, 14,
|7, 3,
|7, 6,
|];
initial_x = [0, 3, 6, 9, 12, 0, 3, 6, 10, 0, 4, 0];
initial_y = [0, 0, 0, 0, 0, 7, 7, 7, 7, 16, 16, 30];